(set-logic QF_SLAH)

(declare-datatypes ((data_t 0)) (((c_data_t (sz Int)))))

(declare-heap (Int data_t))

(define-fun hck ((?x Int) (?y Int) (?v Int)) Bool
	(and
		(>= (- ?y ?x) 2) (<= (- ?y ?x) ?v)
		(sep (pto ?x (c_data_t (- ?y ?x))) (blk (+ ?x 1) ?y))
))

(define-fun-rec hls ((?x Int) (?y Int) (?v Int)) Bool
	(or
		(and (= ?x ?y) (_ emp Int data_t))
		(exists ((?w Int)) (sep (hck ?x ?w ?v) (hls ?w ?y ?v)))
))

(declare-const x0 Int)
(declare-const x1 Int)
(declare-const v0 Int)
(declare-const x2 Int)
(declare-const x3 Int)
(declare-const x4 Int)
(declare-const x5 Int)
(declare-const x6 Int)
(declare-const x7 Int)
(declare-const v6 Int)
(declare-const x8 Int)
(declare-const x9 Int)
(declare-const v8 Int)
(declare-const x10 Int)
(declare-const x11 Int)
(declare-const x12 Int)
(declare-const x13 Int)
(declare-const x14 Int)
(declare-const x15 Int)
(declare-const v14 Int)
(declare-const x16 Int)
(declare-const x17 Int)
(declare-const x18 Int)
(declare-const x19 Int)
(declare-const v18 Int)
(declare-const x20 Int)
(declare-const x21 Int)
(declare-const v20 Int)
(declare-const x22 Int)
(declare-const x23 Int)
(declare-const v22 Int)
(declare-const x24 Int)
(declare-const x25 Int)
(declare-const x26 Int)
(declare-const x27 Int)
(declare-const x28 Int)
(declare-const x29 Int)
(declare-const x30 Int)
(declare-const x31 Int)
(declare-const x32 Int)
(declare-const x33 Int)
(declare-const v32 Int)
(declare-const x34 Int)
(declare-const x35 Int)
(declare-const v34 Int)
(declare-const x36 Int)
(declare-const x37 Int)
(declare-const x38 Int)
(declare-const x39 Int)
(declare-const x40 Int)
(declare-const x41 Int)
(declare-const x42 Int)
(declare-const x43 Int)
(declare-const x44 Int)
(declare-const x45 Int)
(declare-const v44 Int)
(declare-const x46 Int)
(declare-const x47 Int)
(declare-const x48 Int)
(declare-const x49 Int)
(declare-const v48 Int)
(declare-const x50 Int)
(declare-const x51 Int)
(declare-const x52 Int)
(declare-const x53 Int)
(declare-const v52 Int)
(declare-const x54 Int)
(declare-const x55 Int)
(declare-const x56 Int)
(declare-const x57 Int)
(declare-const x58 Int)
(declare-const x59 Int)
(declare-const v58 Int)
(declare-const x60 Int)
(declare-const x61 Int)
(declare-const x62 Int)
(declare-const x63 Int)
(declare-const x64 Int)
(declare-const x65 Int)
(declare-const x66 Int)
(declare-const x67 Int)
(declare-const v66 Int)
(declare-const x68 Int)
(declare-const x69 Int)
(declare-const x70 Int)
(declare-const x71 Int)
(declare-const x72 Int)
(declare-const x73 Int)
(declare-const v72 Int)
(declare-const x74 Int)
(declare-const x75 Int)
(declare-const v74 Int)
(declare-const x76 Int)
(declare-const x77 Int)
(declare-const v76 Int)
(declare-const x78 Int)
(declare-const x79 Int)
(declare-const v78 Int)
(declare-const x80 Int)
(declare-const x81 Int)
(declare-const x82 Int)
(declare-const x83 Int)
(declare-const x84 Int)
(declare-const x85 Int)
(declare-const v84 Int)
(declare-const x86 Int)
(declare-const x87 Int)
(declare-const x88 Int)
(declare-const x89 Int)
(declare-const x90 Int)
(declare-const x91 Int)
(declare-const x92 Int)
(declare-const x93 Int)
(declare-const v92 Int)
(declare-const x94 Int)
(declare-const x95 Int)
(declare-const x96 Int)
(declare-const x97 Int)
(declare-const v96 Int)
(declare-const x98 Int)
(declare-const x99 Int)
(declare-const v98 Int)
(declare-const x100 Int)
(declare-const x101 Int)
(declare-const x102 Int)
(declare-const x103 Int)
(declare-const v102 Int)
(declare-const x104 Int)
(declare-const x105 Int)
(declare-const x106 Int)
(declare-const x107 Int)
(declare-const v106 Int)
(declare-const x108 Int)
(declare-const x109 Int)
(declare-const v108 Int)
(declare-const x110 Int)
(declare-const x111 Int)
(declare-const x112 Int)
(declare-const x113 Int)
(declare-const x114 Int)
(declare-const x115 Int)
(declare-const x116 Int)
(declare-const x117 Int)
(declare-const x118 Int)
(declare-const x119 Int)
(declare-const v118 Int)
(declare-const x120 Int)
(declare-const x121 Int)
(declare-const x122 Int)
(declare-const x123 Int)
(declare-const x124 Int)
(declare-const x125 Int)
(declare-const x126 Int)
(declare-const x127 Int)
(declare-const x128 Int)
(declare-const x129 Int)
(declare-const v128 Int)
(declare-const x130 Int)
(declare-const x131 Int)
(declare-const x132 Int)
(declare-const x133 Int)
(declare-const x134 Int)
(declare-const x135 Int)
(declare-const v134 Int)
(declare-const x136 Int)
(declare-const x137 Int)
(declare-const x138 Int)
(declare-const x139 Int)
(declare-const x140 Int)
(declare-const x141 Int)
(declare-const x142 Int)
(declare-const x143 Int)
(declare-const v142 Int)
(declare-const x144 Int)
(declare-const x145 Int)
(declare-const v144 Int)
(declare-const x146 Int)
(declare-const x147 Int)
(declare-const x148 Int)
(declare-const x149 Int)
(declare-const x150 Int)
(declare-const x151 Int)
(declare-const x152 Int)
(declare-const x153 Int)
(declare-const x154 Int)
(declare-const x155 Int)
(declare-const x156 Int)
(declare-const x157 Int)
(declare-const v156 Int)
(declare-const x158 Int)
(declare-const x159 Int)
(declare-const v158 Int)
(declare-const x160 Int)
(declare-const x161 Int)
(declare-const x162 Int)
(declare-const x163 Int)
(declare-const v162 Int)
(declare-const x164 Int)
(declare-const x165 Int)
(declare-const x166 Int)
(declare-const x167 Int)
(declare-const v166 Int)
(declare-const x168 Int)
(declare-const x169 Int)
(declare-const x170 Int)
(declare-const x171 Int)
(declare-const x172 Int)
(declare-const x173 Int)
(declare-const x174 Int)
(declare-const x175 Int)
(declare-const x176 Int)
(declare-const x177 Int)
(declare-const x178 Int)
(declare-const x179 Int)
(declare-const x180 Int)
(declare-const x181 Int)
(declare-const v180 Int)
(declare-const x182 Int)
(declare-const x183 Int)
(declare-const x184 Int)
(declare-const x185 Int)
(declare-const x186 Int)
(declare-const x187 Int)
(declare-const v186 Int)
(declare-const x188 Int)
(declare-const x189 Int)
(declare-const x190 Int)
(declare-const x191 Int)
(declare-const v190 Int)
(declare-const x192 Int)
(declare-const x193 Int)
(declare-const v192 Int)
(declare-const x194 Int)
(declare-const x195 Int)
(declare-const x196 Int)
(declare-const x197 Int)
(declare-const x198 Int)
(declare-const x199 Int)

(assert(and
(< x83 x49) (distinct x70 x91) (< x76 x157) (distinct x144 x105) (= x123 x32) (< x100 x131) (< x153 x98) (distinct x23 x146) (= x98 x159) 
(sep
(hls x0 x1 v0)
(pto x2 (c_data_t x3))
(blk x4 x5)
(hls x6 x7 v6)
(hls x8 x9 v8)
(blk x10 x11)
(pto x12 (c_data_t x13))
(hls x14 x15 v14)
(pto x16 (c_data_t x17))
(hls x18 x19 v18)
(hls x20 x21 v20)
(hls x22 x23 v22)
(pto x24 (c_data_t x25))
(pto x26 (c_data_t x27))
(pto x28 (c_data_t x29))
(blk x30 x31)
(hls x32 x33 v32)
(hls x34 x35 v34)
(blk x36 x37)
(blk x38 x39)
(blk x40 x41)
(blk x42 x43)
(hls x44 x45 v44)
(blk x46 x47)
(hls x48 x49 v48)
(pto x50 (c_data_t x51))
(hls x52 x53 v52)
(blk x54 x55)
(blk x56 x57)
(hls x58 x59 v58)
(blk x60 x61)
(pto x62 (c_data_t x63))
(pto x64 (c_data_t x65))
(hls x66 x67 v66)
(blk x68 x69)
(pto x70 (c_data_t x71))
(hls x72 x73 v72)
(hls x74 x75 v74)
(hls x76 x77 v76)
(hls x78 x79 v78)
(blk x80 x81)
(blk x82 x83)
(hls x84 x85 v84)
(blk x86 x87)
(blk x88 x89)
(pto x90 (c_data_t x91))
(hls x92 x93 v92)
(blk x94 x95)
(hls x96 x97 v96)
(hls x98 x99 v98)
(blk x100 x101)
(hls x102 x103 v102)
(blk x104 x105)
(hls x106 x107 v106)
(hls x108 x109 v108)
(blk x110 x111)
(pto x112 (c_data_t x113))
(blk x114 x115)
(pto x116 (c_data_t x117))
(hls x118 x119 v118)
(blk x120 x121)
(blk x122 x123)
(blk x124 x125)
(pto x126 (c_data_t x127))
(hls x128 x129 v128)
(pto x130 (c_data_t x131))
(pto x132 (c_data_t x133))
(hls x134 x135 v134)
(pto x136 (c_data_t x137))
(pto x138 (c_data_t x139))
(pto x140 (c_data_t x141))
(hls x142 x143 v142)
(hls x144 x145 v144)
(pto x146 (c_data_t x147))
(pto x148 (c_data_t x149))
(pto x150 (c_data_t x151))
(blk x152 x153)
(pto x154 (c_data_t x155))
(hls x156 x157 v156)
(hls x158 x159 v158)
(blk x160 x161)
(hls x162 x163 v162)
(blk x164 x165)
(hls x166 x167 v166)
(pto x168 (c_data_t x169))
(pto x170 (c_data_t x171))
(blk x172 x173)
(blk x174 x175)
(pto x176 (c_data_t x177))
(pto x178 (c_data_t x179))
(hls x180 x181 v180)
(blk x182 x183)
(pto x184 (c_data_t x185))
(hls x186 x187 v186)
(blk x188 x189)
(hls x190 x191 v190)
(hls x192 x193 v192)
(pto x194 (c_data_t x195))
(pto x196 (c_data_t x197))
(pto x198 (c_data_t x199))
)))

(check-sat)